<instance format="XCSP3" type="CSP">
  <variables>
    <var id="x0"> 3 8 12 </var>
    <var id="x1"> 3 6 8 13 </var>
    <var id="x2"> 6 8 12 </var>
    <var id="x3"> 6 10 11 13 </var>
    <var id="x4"> 3 6 10 </var>
    <var id="x5"> 3 8 10 11 </var>
    <var id="x6"> 6 8 10 12 </var>
    <var id="x7"> 4 7..9 11 </var>
    <var id="x8"> 3 8 9 14 </var>
    <var id="x9"> 11 14 </var>
    <var id="x10"> 3 4 9 </var>
    <var id="x11"> 3 8 9 11 </var>
    <var id="x12"> 4 7 8 14 </var>
    <var id="x13"> 3 4 8 9 14 </var>
    <var id="x14"> 0 8 13 </var>
    <var id="x15"> 4 8 14 </var>
    <var id="x16"> 0 8 13 </var>
    <var id="x17"> 1 8 14 </var>
    <var id="x18"> 0 8 9 </var>
    <var id="x19"> 0 13 14 </var>
    <var id="x20"> 8 9 13 </var>
    <var id="x21"> 2 3 8 </var>
    <var id="x22"> 3 8 9 </var>
    <var id="x23"> 10 </var>
    <var id="x24"> 2 3 8 9 </var>
    <var id="x25"> 3 7 8 10 </var>
    <var id="x26"> 2 7 8 10 </var>
    <var id="x27"> 2..4 8 9 </var>
    <var id="x28"> 7 8 11 13 </var>
    <var id="x29"> 3 8 12 13 </var>
    <var id="x30"> 5 7 8 13 </var>
    <var id="x31"> 8 11 12 </var>
    <var id="x32"> 3 5 8 13 </var>
    <var id="x33"> 3 8 11..13 </var>
    <var id="x34"> 3 5 7 8 11 </var>
    <var id="x35"> 7 8 10 </var>
    <var id="x36"> 2 6 8 12 </var>
    <var id="x37"> 5 7 8 12 14 </var>
    <var id="x38"> 5 6 10 14 </var>
    <var id="x39"> 2 5 6 8 </var>
    <var id="x40"> 5 6 10 </var>
    <var id="x41"> 8 10 12 </var>
    <var id="x42"> 2 6..8 10 12 </var>
    <var id="x43"> 4 9 10 </var>
    <var id="x44"> 1 6 9 </var>
    <var id="x45"> 1 10 12 </var>
    <var id="x46"> 0 6 9 12 </var>
    <var id="x47"> 0 4 6 9 10 </var>
    <var id="x48"> 1 6 10 12 </var>
    <var id="x49"> 1 4 10 </var>
    <var id="x50"> 0 3 8 12 </var>
    <var id="x51"> 0 5 8 </var>
    <var id="x52"> 8 12 14 </var>
    <var id="x53"> 0 5 8 9 12 </var>
    <var id="x54"> 0 3 5 9 </var>
    <var id="x55"> 5 8 14 </var>
    <var id="x56"> 3 8 9 14 </var>
    <var id="x57"> 4 7 8 14 </var>
    <var id="x58"> 7 8 10 13 </var>
    <var id="x59"> 8 10 14 </var>
    <var id="x60"> 6..8 </var>
    <var id="x61"> 6..8 10 </var>
    <var id="x62"> 4 7 8 10 14 </var>
    <var id="x63"> 4 8 13 14 </var>
    <var id="x64"> 8 11 13 </var>
    <var id="x65"> 3 8 12 </var>
    <var id="x66"> 0 2 8 13 </var>
    <var id="x67"> 2 8 11 12 </var>
    <var id="x68"> 0 2 3 8 13 </var>
    <var id="x69"> 0 3 </var>
    <var as="x33" id="x70"/>
    <var id="x71"> 1 9 </var>
    <var id="x72"> 1 2 10 11 </var>
    <var id="x73"> 0 5 10 11 </var>
    <var id="x74"> 0 2 5 9 </var>
    <var id="x75"> 5 10 11 </var>
    <var id="x76"> 1 5 10 </var>
    <var id="x77"> 2 9 </var>
    <var id="x78"> 0 5 6 8 </var>
    <var id="x79"> 0 2 5 6 8 13 </var>
    <var id="x80"> 8 10 13 </var>
    <var id="x81"> 5 8 10 </var>
    <var id="x82"> 2 6 8 10 </var>
    <var id="x83"> 5 8 10 </var>
    <var id="x84"> 2 8 13 </var>
    <var id="x85"> 7 8 10 13 </var>
    <var id="x86"> 5 7 8 10 13 </var>
    <var id="x87"> 5 6 8 13 </var>
    <var id="x88"> 5 6 10 </var>
    <var id="x89"> 8 10 13 </var>
    <var id="x90"> 5 7 8 10 14 </var>
    <var as="x90" id="x91"/>
    <var id="x92"> 3 6 8 </var>
    <var id="x93"> 3 5 7 8 14 </var>
    <var id="x94"> 3 6 8 14 </var>
    <var id="x95"> 5..8 </var>
    <var id="x96"> 5 6 10 14 </var>
    <var id="x97"> 3 5 6 8 </var>
    <var id="x98"> 3 5 7 8 10 14 </var>
    <var id="x99"> 8 9 13 </var>
    <var id="x100"> 2 3 8 13 </var>
    <var id="x101"> 3 5 8 </var>
    <var id="x102"> 2 5 8 13 </var>
    <var id="x103"> 1 3 8 9 13 </var>
    <var id="x104"> 1 2 8 </var>
    <var id="x105"> 2 3 8 9 13 </var>
  </variables>
  <constraints>
    <group>
      <allDifferent> %... </allDifferent>
      <args> x0 x1 x2 x3 x4 x5 x6 </args>
      <args> x7 x8 x9 x10 x11 x12 x13 </args>
      <args> x14 x15 x16 x17 x18 x19 x20 </args>
      <args> x21 x22 x23 x24 x25 x26 x27 </args>
      <args> x28 x29 x30 x31 x32 x33 x34 </args>
      <args> x35 x36 x37 x38 x39 x40 x41 x42 </args>
      <args> x43 x44 x45 x46 x47 x48 x49 </args>
      <args> x50 x51 x52 x53 x54 x55 x56 </args>
      <args> x57 x58 x59 x60 x61 x62 x63 </args>
      <args> x64 x65 x66 x67 x68 x69 x70 </args>
      <args> x71 x72 x73 x74 x75 x76 x77 </args>
      <args> x78 x79 x80 x81 x82 x83 x84 </args>
      <args> x85 x86 x87 x88 x89 x90 x91 </args>
      <args> x92 x93 x94 x95 x96 x97 x98 </args>
      <args> x99 x100 x101 x102 x103 x104 x105 </args>
      <args> x7 x28 x35 x43 x64 x85 x99 </args>
      <args> x14 x21 x29 x36 x50 x92 x100 </args>
      <args> x0 x15 x37 x57 x65 x93 x101 </args>
      <args> x16 x30 x51 x58 x66 x86 x102 </args>
      <args> x1 x8 x22 x44 x71 x94 x103 </args>
      <args> x17 x31 x45 x52 x59 x67 x72 </args>
      <args> x2 x18 x46 x53 x60 x78 x95 </args>
      <args> x3 x9 x19 x23 x38 x73 x96 </args>
      <args> x24 x32 x39 x68 x74 x79 x87 x97 </args>
      <args> x4 x10 x40 x47 x54 x69 x88 </args>
      <args> x11 x20 x33 x41 x70 x80 x89 </args>
      <args> x5 x25 x34 x75 x81 x90 x98 </args>
      <args> x6 x26 x42 x48 x61 x82 x104 </args>
      <args> x12 x49 x55 x62 x76 x83 x91 </args>
      <args> x13 x27 x56 x63 x77 x84 x105 </args>
    </group>
  </constraints>
</instance>

